Intel MKL WARNING: Support of Intel(R) Streaming SIMD Extensions 4.2 (Intel(R) SSE4.2) enabled only processors has been deprecated. Intel oneAPI Math Kernel Library 2025.0 will require Intel(R) Advanced Vector Extensions (Intel(R) AVX) instructions.
Intel MKL WARNING: Support of Intel(R) Streaming SIMD Extensions 4.2 (Intel(R) SSE4.2) enabled only processors has been deprecated. Intel oneAPI Math Kernel Library 2025.0 will require Intel(R) Advanced Vector Extensions (Intel(R) AVX) instructions.
===================================
            PICOS 2.5.1            
===================================
Problem type: Second Order Cone Program.
Searching a solution strategy for Gurobi.
Solution strategy:
  1. ExtraOptions
  2. GurobiSolver
Skipping ExtraOptions.
Building a Gurobi problem instance.
Restricted license - for non-production use only - expires 2025-11-24
Starting solution search.
Set parameter FeasibilityTol to value 1e-08
Set parameter OptimalityTol to value 1e-08
Set parameter BarQCPConvTol to value 1e-10
Set parameter MIPGapAbs to value 1e-06
Set parameter QCPDual to value 1
-----------------------------------
         Gurobi Optimizer          
-----------------------------------
Gurobi Optimizer version 11.0.3 build v11.0.3rc0 (mac64[rosetta2] - Darwin 22.2.0 22C65)

CPU model: Apple M2
Thread count: 8 physical cores, 8 logical processors, using up to 8 threads

Optimize a model with 15 rows, 15 columns and 30 nonzeros
Model fingerprint: 0x31029bcb
Model has 3 quadratic constraints
Coefficient statistics:
  Matrix range     [5e-01, 3e+00]
  QMatrix range    [1e+00, 1e+00]
  Objective range  [2e+00, 1e+01]
  Bounds range     [0e+00, 0e+00]
  RHS range        [4e+00, 6e+00]
Presolve removed 6 rows and 3 columns
Presolve time: 0.03s
Presolved: 12 rows, 12 columns, 24 nonzeros
Presolved model has 3 second-order cone constraints
Ordering time: 0.00s

Barrier statistics:
 AA' NZ     : 6.600e+01
 Factor NZ  : 7.800e+01
 Factor Ops : 6.500e+02 (less than 1 second per iteration)
 Threads    : 1

                  Objective                Residual
Iter       Primal          Dual         Primal    Dual     Compl     Time
   0   1.37356929e+01  1.37356929e+01  3.39e+00 4.73e+00  6.84e+00     0s
   1  -1.11329010e+00  5.88257998e+00  2.04e-01 1.31e+00  8.66e-01     0s
   2  -2.02270225e+00 -1.52287186e+00  2.15e-07 1.12e-01  6.35e-02     0s
   3  -2.39130822e+00 -2.40455412e+00  1.91e-09 7.27e-05  9.46e-04     0s
   4  -2.39997120e+00 -2.40002208e+00  4.29e-13 7.98e-08  3.46e-06     0s
   5  -2.39999772e+00 -2.40000088e+00  8.76e-12 9.35e-14  2.11e-07     0s
   6  -2.39999997e+00 -2.40000000e+00  1.13e-09 1.05e-12  2.03e-09     0s
   7  -2.40000000e+00 -2.40000000e+00  4.01e-10 5.25e-11  6.16e-12     0s

Barrier solved model in 7 iterations and 0.06 seconds (0.00 work units)
Optimal objective -2.40000000e+00

Solving KKT system to obtain QCP duals...

------------[ Gurobi ]-------------
Solver claims optimal solution for feasible problem.
Applying the solution.
Applied solution is primal feasible.
Search 7.6e-02s, solve 4.0e-01s, overhead 426%.
=============[ PICOS ]=============
Processing time: 0.3986 seconds
status: optimal
optional value: -2.4000000002381574
optional solution
x:
[ 8.00e-01]
[-1.45e-11]
[-1.52e-11]

x[0] = 0.8
x[1] = -0.0
x[2] = -0.0
